
100
26035

415 156
288 139
845 797
444 887
529 700
552 502
339 657
640 564
901 607
72 929
561 475
265 272
656 220
624 527
46 761
113 387
529 265
859 161
798 721
824 9
138 360
351 163
577 724
367 739
231 687
923 97
636 267
399 276
477 909
700 938
760 779
780 575
335 419
968 589
764 552
271 374
172 206
431 58
261 261
878 160
10 727
818 809
162 160
812 886
433 767
132 365
986 740
419 489
979 656
323 750
238 923
556 578
195 218
578 648
708 660
642 499
6 364
668 997
269 956
454 763
859 491
867 657
132 180
92 52
754 248
432 614
708 965
647 757
990 645
861 93
995 830
903 52
569 202
408 565
163 794
840 58
492 764
486 645
294 656
331 571
505 970
643 843
310 34
150 914
596 655
945 978
562 949
979 411
181 143
797 970
538 25
32 150
175 212
721 811
819 162
132 619
684 233
888 619
241 420
829 811
